Log file: C:\Users\user\robust_bilevel_network_games\true_dro\log_sioux_falls_S20_20260417_1356715.txt
Started: 2026-04-17T13:56:33.731


======================================================================
INSTANCE: sioux_falls (S=20, ε̂=0.7, ε̃=0.7)
======================================================================
============================================================
Sioux-Falls Network Summary
============================================================
Number of nodes: 24
Number of arcs (incl. dummy): 77
Number of regular arcs: 76
Number of interdictable arcs: 66
Source node: s (1)
Sink node: t (24)
Node-incidence matrix N dimensions: (23, 77)

Sparsity Information:
  Arc-arc adjacency: 864 / 5776 pairs (85.0% sparse)
  Node-arc incidence: 148 / 1748 pairs (91.5% sparse)

First 15 arcs:
  Arc 1: ("10", "11") [Interdictable: ✓]
  Arc 2: ("10", "15") [Interdictable: ✓]
  Arc 3: ("10", "16") [Interdictable: ✓]
  Arc 4: ("10", "17") [Interdictable: ✓]
  Arc 5: ("10", "9") [Interdictable: ✓]
  Arc 6: ("11", "10") [Interdictable: ✓]
  Arc 7: ("11", "12") [Interdictable: ✓]
  Arc 8: ("11", "14") [Interdictable: ✓]
  Arc 9: ("11", "4") [Interdictable: ✓]
  Arc 10: ("12", "11") [Interdictable: ✓]
  Arc 11: ("12", "13") [Interdictable: ✓]
  Arc 12: ("12", "3") [Interdictable: ✓]
  Arc 13: ("13", "12") [Interdictable: ✓]
  Arc 14: ("13", "t") [Interdictable: ✗]
  Arc 15: ("14", "11") [Interdictable: ✓]
============================================================
  |A|=76, S=20, γ=2, w=1.9805, λU=2.0
  ε̂=0.7, ε̃=0.7

----------------------------------------
VI-only OMP diagnostic (no Benders cuts)
Set parameter Username
Set parameter LicenseID to value 2742039
Academic license - for non-commercial use only - expires 2026-11-20
Set parameter OutputFlag to value 1
Set parameter OutputFlag to value 1
Gurobi Optimizer version 13.0.0 build v13.0.0rc1 (win64 - Windows 10.0 (19045.2))

CPU model: AMD Ryzen 9 5900X 12-Core Processor, instruction set [SSE2|AVX|AVX2]
Thread count: 12 physical cores, 24 logical processors, using up to 24 threads

Optimize a model with 6112 rows, 3577 columns and 18067 nonzeros (Min)
Model fingerprint: 0x8ba74a64
Model has 1 linear objective coefficients
Variable types: 3501 continuous, 76 integer (76 binary)
Coefficient statistics:
  Matrix range     [2e-02, 1e+00]
  Objective range  [1e+00, 1e+00]
  Bounds range     [1e+00, 1e+04]
  RHS range        [1e+00, 2e+00]
Found heuristic solution: objective 75.8358076
Presolve removed 2271 rows and 553 columns
Presolve time: 0.00s
Presolved: 3841 rows, 3024 columns, 8984 nonzeros
Found heuristic solution: objective 55.7240525
Variable types: 2960 continuous, 64 integer (64 binary)

Root relaxation: objective 3.230065e+00, 1334 iterations, 0.02 seconds (0.03 work units)

    Nodes    |    Current Node    |     Objective Bounds      |     Work
 Expl Unexpl |  Obj  Depth IntInf | Incumbent    BestBd   Gap | It/Node Time

*    0     0               0       3.2300654    3.23007  0.00%     -    0s

Explored 1 nodes (1334 simplex iterations) in 0.03 seconds (0.05 work units)
Thread count was 24 (of 24 available processors)

Solution count 3: 3.23007 55.7241 75.8358 

Optimal solution found (tolerance 1.00e-04)
Best objective 3.230065405688e+00, best bound 3.230065405688e+00, gap 0.0000%

User-callback calls 40, time in user-callback 0.00 sec
  VI-only LB = 3.230065, x = [0, 0, 0, 0, 0, 0, 0, 0, 0, 0, 0, 0, 0, 0, 0, 0, 0, 0, 0, 0, 0, 0, 0, 0, 0, 0, 0, 0, 0, 0, 0, 0, 0, 0, 0, 0, 0, 0, 0, 0, 0, 0, 0, 0, 0, 0, 0, 0, 0, 0, 1, 1, 0, 0, 0, 0, 0, 0, 0, 0, 0, 0, 0, 0, 0, 0, 0, 0, 0, 0, 0, 0, 0, 0, 0, 0]
----------------------------------------

======================================================================
1. True-DRO Benders (bilinear subproblem via Gurobi NonConvex=2)
======================================================================
Set parameter Username
Set parameter LicenseID to value 2742039
Academic license - for non-commercial use only - expires 2026-11-20
Set parameter Username
Set parameter LicenseID to value 2742039
Academic license - for non-commercial use only - expires 2026-11-20
Set parameter DualReductions to value 0
Set parameter NonConvex to value 2
Set parameter LogFile to value "global_miqcp.log"
Set parameter Username
Set parameter LicenseID to value 2742039
Academic license - for non-commercial use only - expires 2026-11-20
Set parameter DualReductions to value 0
Set parameter NonConvex to value 2
Set parameter OptimalityTarget to value 1
Set parameter Username
Set parameter LicenseID to value 2742039
Academic license - for non-commercial use only - expires 2026-11-20
Set parameter Username
Set parameter LicenseID to value 2742039
Academic license - for non-commercial use only - expires 2026-11-20
Set parameter Username
Set parameter LicenseID to value 2742039
Academic license - for non-commercial use only - expires 2026-11-20

=== True-DRO Benders iter 1 ===
  OMP: t₀=3.230065, UB=Inf, gap=NaN, x=[0, 0, 0, 0, 0, 0, 0, 0, 0, 0, 0, 0, 0, 0, 0, 0, 0, 0, 0, 0, 0, 0, 0, 0, 0, 0, 0, 0, 0, 0, 0, 0, 0, 0, 0, 0, 0, 0, 0, 0, 0, 0, 0, 0, 0, 0, 0, 0, 0, 0, 1, 1, 0, 0, 0, 0, 0, 0, 0, 0, 0, 0, 0, 0, 0, 0, 0, 0, 0, 0, 0, 0, 0, 0, 0, 0] (0.046s)
Set parameter TimeLimit to value 30
Set parameter MIPGap to value 0.0001
Set parameter MIPFocus to value 0
Set parameter NonConvex to value 2
Set parameter MIPGap to value 0.0001
Set parameter DualReductions to value 0
Set parameter OptimalityTarget to value 1
Set parameter MIPFocus to value 0
Set parameter TimeLimit to value 30
Gurobi Optimizer version 13.0.0 build v13.0.0rc1 (win64 - Windows 10.0 (19045.2))

CPU model: AMD Ryzen 9 5900X 12-Core Processor, instruction set [SSE2|AVX|AVX2]
Thread count: 12 physical cores, 24 logical processors, using up to 24 threads

Non-default parameters:
TimeLimit  30
OptimalityTarget  1
DualReductions  0
NonConvex  2

Optimize a model with 8778 rows, 17605 columns and 42593 nonzeros (Max)
Model fingerprint: 0x1459f367
Model has 3136 linear objective coefficients
Model has 3040 quadratic constraints
Coefficient statistics:
  Matrix range     [3e-01, 3e+01]
  QMatrix range    [1e+00, 1e+00]
  QLMatrix range   [1e+00, 1e+00]
  Objective range  [1e+00, 2e+00]
  Bounds range     [1e+00, 1e+01]
  RHS range        [5e-02, 2e+00]

Continuous model is non-convex -- solving with NL barrier

Presolve removed 3040 rows and 3040 columns
Presolve time: 0.02s
Presolved: 5738 rows, 14565 columns, 27393 nonzeros
Presolved model has 3040 quadratic constraint(s)
Ordering time: 0.01s

NL barrier statistics:
  Hessian NZ  : 3.040e+03
  Jacobian NZ : 4.259e+04
  Factor NZ   : 2.818e+05
  Factor Ops  : 6.918e+06
  Threads     : 1

                           Residuals
Iter     Objective      Primal     Dual      Compl     Step     Time
   0  -2.33434639e+04  1.16e+05  3.27e+03  7.77e+02  0.00e+00     0s
   1  -2.41552504e+04  8.88e+04  2.96e+03  7.13e+02  2.36e-01     0s
   2  -2.53822416e+04  5.57e+04  2.48e+03  6.33e+02  3.72e-01     0s
   3  -2.56713476e+04  4.93e+04  1.27e+03  2.85e+02  1.15e-01     0s
   4  -2.64794226e+04  3.13e+04  7.55e+02  1.61e+02  3.64e-01     0s
   5  -2.65460131e+04  1.70e+04  4.43e+02  9.21e+01  4.56e-01     0s
   6  -2.56329640e+04  1.10e+04  2.09e+02  4.04e+01  3.54e-01     0s
   7  -2.31169673e+04  6.51e+03  6.92e+01  1.26e+01  4.08e-01     0s
   8  -1.63022323e+04  1.88e+03  6.12e+00  1.82e+00  7.12e-01     0s
   9  -1.16997656e+04  4.30e+02  6.37e-01  1.19e+00  7.71e-01     0s
  10  -1.10222505e+04  2.20e+02  3.30e-01  1.10e+00  4.87e-01     0s
  11  -1.06451169e+04  1.14e+02  1.84e-01  1.06e+00  4.82e-01     0s
  12  -1.04785309e+04  7.02e+01  1.20e-01  1.04e+00  3.85e-01     0s
  13  -1.04001448e+04  4.95e+01  6.08e-02  1.01e+00  2.95e-01     0s
  14  -1.02301836e+04  2.09e-06  1.91e-04  1.00e+00  1.00e+00     0s
  15  -1.02273835e+04  4.74e-10  9.01e-07  1.00e+00  1.00e+00     0s
  16  -1.02272712e+04  4.45e-12  1.41e-08  1.00e+00  1.00e+00     0s
  17  -6.47242224e+03  5.22e-06  1.24e-02  4.55e-01  5.59e-01     0s
  18  -3.59282642e+03  2.39e-05  6.15e-02  3.41e-01  6.55e-01     0s
  19  -2.73007306e+03  2.02e-05  2.54e-02  2.46e-01  4.34e-01     0s
  20  -1.93237905e+03  2.60e-05  1.79e-02  1.76e-01  7.04e-01     0s
  21  -1.61315583e+03  2.07e-05  5.61e-03  1.50e-01  1.00e+00     0s
  22  -1.61518636e+03  1.09e-06  1.21e-04  1.50e-01  1.00e+00     0s
  23  -8.62971792e+02  5.65e-05  1.08e-02  9.01e-02  4.76e-01     0s
  24  -7.28453635e+02  5.84e-05  5.36e-02  5.42e-02  1.76e-01     0s
  25  -4.05402180e+02  1.42e-03  9.52e-02  4.05e-02  5.40e-01     0s
  26  -2.40351445e+02  6.63e-03  4.62e-01  3.12e-02  6.52e-01     0s
  27  -1.69143722e+02  1.25e-03  5.54e-02  2.25e-02  1.00e+00     0s
  28  -1.71610702e+02  2.63e-04  1.36e-03  2.25e-02  1.00e+00     0s
  29  -1.71647734e+02  1.26e-06  1.20e-05  2.25e-02  1.00e+00     0s
  30  -9.25976273e+01  1.77e-03  1.72e-01  1.52e-02  4.58e-01     0s
  31  -4.01350819e+01  1.50e-03  5.27e-02  6.58e-03  6.36e-01     0s
  32  -1.69224942e+01  5.02e-04  2.11e-02  3.38e-03  1.00e+00     0s
  33  -1.72578683e+01  5.36e-05  9.41e-04  3.38e-03  1.00e+00     0s
  34  -1.72440775e+01  1.77e-07  4.31e-06  3.38e-03  1.00e+00     0s
  35  -7.98352551e-01  1.35e-03  2.71e-02  1.30e-03  7.65e-01     0s
  36   6.45064946e+00  1.24e-02  1.69e-01  9.38e-04  1.00e+00     0s
  37   7.04600242e+00  6.80e-03  9.68e-02  6.80e-04  4.50e-01     0s
  38   7.48102781e+00  2.81e-03  2.55e-02  3.55e-04  5.89e-01     0s
  39   7.65521315e+00  8.82e-04  6.55e-03  3.49e-04  6.83e-01     0s
  40   7.65184355e+00  3.03e-04  3.82e-04  3.46e-04  6.57e-01     0s
  41   7.65422297e+00  2.04e-08  1.48e-07  3.46e-04  1.00e+00     0s
  42   8.08954004e+00  1.35e-05  1.63e-02  1.42e-04  1.60e-01     0s
  43   8.34771964e+00  2.33e-05  8.99e-03  1.25e-04  1.05e-01     0s
  44   9.45214950e+00  2.92e-05  2.91e-03  9.23e-05  6.32e-01     0s
  45   9.50766254e+00  2.73e-05  6.24e-03  5.66e-05  7.89e-02     0s
  46   9.61479474e+00  3.33e-05  1.44e-02  4.78e-05  1.30e-01     0s
  47   9.75702801e+00  2.45e-05  1.11e-02  4.36e-05  2.59e-01     0s
  48   9.77685964e+00  2.34e-05  1.31e-02  2.92e-05  4.63e-02     0s
  49   9.92570609e+00  3.37e-05  2.72e-03  2.48e-05  3.22e-01     0s
  50   1.00983447e+01  3.83e-05  8.45e-03  2.02e-05  5.83e-01     0s
  51   1.01379954e+01  2.51e-05  6.62e-03  1.66e-05  3.14e-01     0s
  52   1.02105731e+01  1.29e-05  2.31e-03  1.47e-05  8.63e-01     0s
  53   1.02126464e+01  1.02e-05  2.49e-03  1.46e-05  2.03e-01     0s
  54   1.02126234e+01  9.93e-06  2.70e-03  1.46e-05  2.33e-02     1s
  55   1.02162982e+01  5.92e-06  4.65e-04  1.45e-05  3.89e-01     1s
  56   1.02218230e+01  1.44e-07  1.80e-04  1.43e-05  1.00e+00     1s
  57   1.02217944e+01  1.82e-10  2.85e-08  1.43e-05  1.00e+00     1s
  58   1.02218038e+01  4.99e-12  1.02e-10  1.43e-05  1.00e+00     1s
  59   1.02346066e+01  5.47e-08  5.86e-03  4.96e-06  1.04e-01     1s
  60   1.03468980e+01  7.96e-06  7.49e-04  1.16e-06  9.88e-01     1s
  61   1.03485733e+01  3.13e-07  2.33e-03  3.47e-07  1.00e+00     1s
  62   1.03485676e+01  3.31e-08  1.49e-08  1.65e-07  1.00e+00     1s
  63   1.03485676e+01  1.34e-10  1.40e-10  1.65e-07  1.00e+00     1s
  64   1.03501459e+01  4.46e-08  5.57e-04  1.42e-08  1.00e+00     1s
  65   1.03501512e+01  6.96e-10  2.51e-10  1.00e-09  1.00e+00     1s

NL barrier solved model in 65 iterations and 0.61 seconds (0.79 work units)
First-order optimal solution
Solution objective 1.035015124085e+01

User-callback calls 167, time in user-callback 0.00 sec
  Sub: Z₀=10.350151 [LOCAL], α=[0.000,0.000,0.000,0.000,0.000,0.000,0.000,0.000,0.000,0.000,0.000,0.000,0.000,0.000,0.000,0.000,0.000,0.000,0.000,0.000,0.000,0.000,0.000,0.000,0.000,0.000,0.000,0.000,0.000,0.000,0.000,0.000,0.000,0.000,0.000,0.000,0.000,0.000,0.000,0.000,0.000,0.000,0.000,0.000,0.000,0.000,0.000,0.000,0.000,0.000,1.108,0.872,0.000,0.000,0.000,0.000,0.000,0.000,0.000,0.000,0.000,0.000,0.000,0.000,0.000,0.000,0.000,0.000,0.000,0.000,0.000,0.000,0.000,0.000,0.000,0.000]
  Iter 1: LB=3.230065  UB=Inf  gap=NaN
  Cut: intercept=-589.516409, π_x_range=[-418.4684, 301.7925]
  [ρ-diag] φ̂U=1.00, φ̃U=2.00, λU=2.00
    π_L range=[-136.6457, 91.7925], |π_L|_∞=136.6457
    π_F range=[-268.5526, 194.8994], |π_F|_∞=268.5526
    π_ψ range=[-13.3333, 17.1747], |π_ψ|_∞=17.1747
    ρ̂1: [0.0000, 9.6621], ρ̂3: [0.0000, 5.0000]
    ρ̃1: [0.0000, 6.7972], ρ̃3: [0.0000, 4.9686]
    ρ⁰1: [0.0000, 6.6667], ρ⁰3: [0.0000, 8.5874]
  [φ-diag] φ̂ actual: [-0.0000, 1.0000], φ̂U=1.00
  [φ-diag] φ̃ actual: [-0.0000, 2.0000], φ̃U=2.00
  Mini-Benders[1] (mw): LB=5.121018, Z₀(α*)=15.029432, intercept=24.697096
  Mini-Benders[2] (mw): LB=6.766660, Z₀(α*)=16.882864, intercept=24.450730
  Mini-Benders[3] (mw): LB=7.139828, Z₀(α*)=17.000256, intercept=24.854395
  Mini-Benders[4] (mw): LB=7.206089, Z₀(α*)=19.683907, intercept=27.028429
  Mini-Benders[5] (mw): LB=8.351084, Z₀(α*)=23.392583, intercept=26.622936
Set parameter NonConvex to value 2
Set parameter DualReductions to value 0
Set parameter LogFile to value "global_miqcp.log"
Gurobi Optimizer version 13.0.0 build v13.0.0rc1 (win64 - Windows 10.0 (19045.2))

CPU model: AMD Ryzen 9 5900X 12-Core Processor, instruction set [SSE2|AVX|AVX2]
Thread count: 12 physical cores, 24 logical processors, using up to 24 threads

Non-default parameters:
DualReductions  0
NonConvex  2

Optimize a model with 8778 rows, 17605 columns and 42593 nonzeros (Max)
Model fingerprint: 0x8a847100
Model has 3136 linear objective coefficients
Model has 3040 quadratic constraints
Coefficient statistics:
  Matrix range     [3e-01, 3e+01]
  QMatrix range    [1e+00, 1e+00]
  QLMatrix range   [1e+00, 1e+00]
  Objective range  [1e+00, 2e+00]
  Bounds range     [1e-07, 2e+00]
  RHS range        [5e-02, 2e+00]
Presolve removed 102 rows and 2092 columns
Presolve time: 0.00s
Presolved: 9664 rows, 15513 columns, 36597 nonzeros
Ordering time: 0.01s

Barrier statistics:
 Free vars  : 440
 AA' NZ     : 3.355e+04
 Factor NZ  : 2.512e+05 (roughly 12 MB of memory)
 Factor Ops : 1.610e+07 (less than 1 second per iteration)
 Threads    : 12

                  Objective                Residual
Iter       Primal          Dual         Primal    Dual     Compl     Time
   0  -1.08244240e+05 -0.00000000e+00  1.20e+04 1.00e+00  1.38e+02     0s
   1  -1.26689692e+05  1.03936274e+03  3.53e+03 5.96e+00  8.40e+01     0s
   2  -1.16848844e+05  1.28361498e+03  8.48e+02 1.41e+00  2.24e+01     0s
   3  -5.51766027e+04  9.07183281e+02  2.44e+01 3.01e-01  4.94e+00     0s
   4  -9.77794338e+03  6.20802886e+02  2.04e+00 8.47e-02  9.71e-01     0s
   5  -2.73084771e+03  3.08488258e+02  5.34e-01 1.37e-02  2.06e-01     0s
   6  -6.65952055e+02  1.25067447e+02  1.34e-01 1.95e-03  4.57e-02     0s
   7  -1.98084591e+02  7.52568454e+01  3.89e-02 9.79e-04  1.82e-02     0s
   8  -4.00352475e+01  1.71362655e+01  7.82e-03 2.18e-05  2.78e-03     0s
   9   6.15974925e-01  1.15615754e+01  1.36e-03 2.70e-06  5.21e-04     0s
  10   1.03036054e+01  1.03816284e+01  2.33e-07 6.56e-08  4.80e-06     0s
  11   1.03405565e+01  1.03438268e+01  1.01e-08 1.08e-10  1.38e-07     0s
  12   1.03428870e+01  1.03436792e+01  1.87e-07 1.61e-11  3.35e-08     0s
  13   1.03435212e+01  1.03436584e+01  3.09e-07 4.68e-12  5.90e-09     0s
  14   1.03436253e+01  1.03436536e+01  8.34e-07 1.40e-12  1.22e-09     0s
  15   1.03436453e+01  1.03436521e+01  1.15e-06 2.04e-13  2.66e-10     0s
  16   1.03436480e+01  1.03436521e+01  1.06e-06 8.57e-14  1.37e-10     0s
  17   1.03436509e+01  1.03436520e+01  1.06e-06 1.45e-13  5.93e-12     0s
  18   1.03436511e+01  1.03436520e+01  1.06e-06 1.14e-13  1.16e-13     0s

Barrier solved model in 18 iterations and 0.08 seconds (0.11 work units)
Optimal objective 1.03436511e+01


User-callback calls 59, time in user-callback 0.00 sec
  α-step: Z₀=10.343651, α=[0.000,0.000,0.000,0.000,0.000,0.000,0.000,0.000,0.000,0.000,0.000,0.000,0.000,0.000,0.000,0.000,0.000,0.000,0.000,0.000,0.000,0.000,0.000,0.000,0.000,0.000,0.000,0.000,0.000,0.000,0.000,0.000,0.000,0.000,0.000,0.000,0.000,0.000,0.000,0.000,0.000,0.000,0.000,0.000,0.000,0.000,0.000,0.000,0.000,0.000,1.980,0.000,0.000,0.000,0.000,0.000,0.000,0.000,0.000,0.000,0.000,0.000,0.000,0.000,0.000,0.000,0.000,0.000,0.000,0.000,0.000,0.000,0.000,0.000,0.000,0.000]
  Alt-Benders[1] (mw): LB=10.350151, Z₀(α*)=10.350161, intercept=24.450996
  Alt-Benders[2] (mw): LB=10.350159, Z₀(α*)=10.350161, intercept=24.450996
  Alt-Benders[3] (mw): LB=10.350159, Z₀(α*)=10.350161, intercept=24.450996
  Alt-Benders[4] (mw): LB=10.350159, Z₀(α*)=10.350161, intercept=24.450996
  Alt-Benders[5]: LB stagnated, break
  OMP re-solve: 0.001s

=== True-DRO Benders iter 2 ===
  OMP: t₀=10.350159, UB=Inf, gap=NaN, x=[0, 0, 0, 0, 0, 0, 0, 0, 0, 0, 0, 0, 0, 0, 0, 0, 0, 0, 0, 0, 0, 0, 0, 0, 0, 0, 0, 0, 0, 0, 0, 0, 0, 0, 0, 0, 0, 0, 0, 0, 0, 0, 0, 0, 0, 0, 0, 0, 0, 0, 1, 1, 0, 0, 0, 0, 0, 0, 0, 0, 0, 0, 0, 0, 0, 0, 0, 0, 0, 0, 0, 0, 0, 0, 0, 0] (0.001s)
Set parameter TimeLimit to value 30
Set parameter MIPGap to value 0.0001
Set parameter MIPFocus to value 0
Gurobi Optimizer version 13.0.0 build v13.0.0rc1 (win64 - Windows 10.0 (19045.2))

CPU model: AMD Ryzen 9 5900X 12-Core Processor, instruction set [SSE2|AVX|AVX2]
Thread count: 12 physical cores, 24 logical processors, using up to 24 threads

Non-default parameters:
TimeLimit  30
OptimalityTarget  1
DualReductions  0
NonConvex  2

Optimize a model with 8778 rows, 17605 columns and 42593 nonzeros (Max)
Model fingerprint: 0x1459f367
Model has 3136 linear objective coefficients
Model has 3040 quadratic constraints
Variable types: 17605 continuous, 0 integer (0 binary)
Coefficient statistics:
  Matrix range     [3e-01, 3e+01]
  QMatrix range    [1e+00, 1e+00]
  QLMatrix range   [1e+00, 1e+00]
  Objective range  [1e+00, 2e+00]
  Bounds range     [1e+00, 1e+01]
  RHS range        [5e-02, 2e+00]
Presolve removed 3040 rows and 3040 columns
Presolve time: 0.01s
Presolved: 5738 rows, 14565 columns, 27393 nonzeros
Presolved model has 3040 quadratic constraint(s)

Solving NLP to local optimality

Ordering time: 0.02s

NL barrier statistics:
  Hessian NZ  : 3.040e+03
  Jacobian NZ : 4.259e+04
  Factor NZ   : 2.818e+05
  Factor Ops  : 6.918e+06
  Threads     : 1

                           Residuals
Iter     Objective      Primal     Dual      Compl     Step     Time
   0  -2.33434639e+04  1.16e+05  3.27e+03  7.77e+02  0.00e+00     0s
   1  -2.41552504e+04  8.88e+04  2.96e+03  7.13e+02  2.36e-01     0s
   2  -2.53822416e+04  5.57e+04  2.48e+03  6.33e+02  3.72e-01     0s
   3  -2.56713476e+04  4.93e+04  1.27e+03  2.85e+02  1.15e-01     0s
   4  -2.64794226e+04  3.13e+04  7.55e+02  1.61e+02  3.64e-01     0s
   5  -2.65460131e+04  1.70e+04  4.43e+02  9.21e+01  4.56e-01     0s
   6  -2.56329640e+04  1.10e+04  2.09e+02  4.04e+01  3.54e-01     0s
   7  -2.31169673e+04  6.51e+03  6.92e+01  1.26e+01  4.08e-01     0s
   8  -1.63022323e+04  1.88e+03  6.12e+00  1.82e+00  7.12e-01     0s
   9  -1.16997656e+04  4.30e+02  6.37e-01  1.19e+00  7.71e-01     0s
  10  -1.10222505e+04  2.20e+02  3.30e-01  1.10e+00  4.87e-01     0s
  11  -1.06451169e+04  1.14e+02  1.84e-01  1.06e+00  4.82e-01     0s
  12  -1.04785309e+04  7.02e+01  1.20e-01  1.04e+00  3.85e-01     0s
  13  -1.04001448e+04  4.95e+01  6.08e-02  1.01e+00  2.95e-01     0s
  14  -1.02301836e+04  2.09e-06  1.91e-04  1.00e+00  1.00e+00     0s
  15  -1.02273835e+04  4.74e-10  9.01e-07  1.00e+00  1.00e+00     0s
  16  -1.02272712e+04  4.45e-12  1.41e-08  1.00e+00  1.00e+00     0s
  17  -6.47242224e+03  5.22e-06  1.24e-02  4.55e-01  5.59e-01     0s
  18  -3.59282642e+03  2.39e-05  6.15e-02  3.41e-01  6.55e-01     0s
  19  -2.73007306e+03  2.02e-05  2.54e-02  2.46e-01  4.34e-01     0s
  20  -1.93237905e+03  2.60e-05  1.79e-02  1.76e-01  7.04e-01     0s
  21  -1.61315583e+03  2.07e-05  5.61e-03  1.50e-01  1.00e+00     0s
  22  -1.61518636e+03  1.09e-06  1.21e-04  1.50e-01  1.00e+00     0s
  23  -8.62971792e+02  5.65e-05  1.08e-02  9.01e-02  4.76e-01     0s
  24  -7.28453635e+02  5.84e-05  5.36e-02  5.42e-02  1.76e-01     0s
  25  -4.05402180e+02  1.42e-03  9.52e-02  4.05e-02  5.40e-01     0s
  26  -2.40351445e+02  6.63e-03  4.62e-01  3.12e-02  6.52e-01     0s
  27  -1.69143722e+02  1.25e-03  5.54e-02  2.25e-02  1.00e+00     0s
  28  -1.71610702e+02  2.63e-04  1.36e-03  2.25e-02  1.00e+00     0s
  29  -1.71647734e+02  1.26e-06  1.20e-05  2.25e-02  1.00e+00     0s
  30  -9.25976273e+01  1.77e-03  1.72e-01  1.52e-02  4.58e-01     0s
  31  -4.01350819e+01  1.50e-03  5.27e-02  6.58e-03  6.36e-01     0s
  32  -1.69224942e+01  5.02e-04  2.11e-02  3.38e-03  1.00e+00     0s
  33  -1.72578683e+01  5.36e-05  9.41e-04  3.38e-03  1.00e+00     0s
  34  -1.72440775e+01  1.77e-07  4.31e-06  3.38e-03  1.00e+00     0s
  35  -7.98352551e-01  1.35e-03  2.71e-02  1.30e-03  7.65e-01     0s
  36   6.45064946e+00  1.24e-02  1.69e-01  9.38e-04  1.00e+00     0s
  37   7.04600242e+00  6.80e-03  9.68e-02  6.80e-04  4.50e-01     0s
  38   7.48102781e+00  2.81e-03  2.55e-02  3.55e-04  5.89e-01     0s
  39   7.65521315e+00  8.82e-04  6.55e-03  3.49e-04  6.83e-01     0s
  40   7.65184355e+00  3.03e-04  3.82e-04  3.46e-04  6.57e-01     0s
  41   7.65422297e+00  2.04e-08  1.48e-07  3.46e-04  1.00e+00     0s
  42   8.08954004e+00  1.35e-05  1.63e-02  1.42e-04  1.60e-01     0s
  43   8.34771964e+00  2.33e-05  8.99e-03  1.25e-04  1.05e-01     0s
  44   9.45214950e+00  2.92e-05  2.91e-03  9.23e-05  6.32e-01     0s
  45   9.50766254e+00  2.73e-05  6.24e-03  5.66e-05  7.89e-02     0s
  46   9.61479474e+00  3.33e-05  1.44e-02  4.78e-05  1.30e-01     0s
  47   9.75702801e+00  2.45e-05  1.11e-02  4.36e-05  2.59e-01     0s
  48   9.77685964e+00  2.34e-05  1.31e-02  2.92e-05  4.63e-02     0s
  49   9.92570609e+00  3.37e-05  2.72e-03  2.48e-05  3.22e-01     0s
  50   1.00983447e+01  3.83e-05  8.45e-03  2.02e-05  5.83e-01     0s
  51   1.01379954e+01  2.51e-05  6.62e-03  1.66e-05  3.14e-01     0s
  52   1.02105731e+01  1.29e-05  2.31e-03  1.47e-05  8.63e-01     0s
  53   1.02126464e+01  1.02e-05  2.49e-03  1.46e-05  2.03e-01     0s
  54   1.02126234e+01  9.93e-06  2.70e-03  1.46e-05  2.33e-02     0s
  55   1.02162982e+01  5.92e-06  4.65e-04  1.45e-05  3.89e-01     0s
  56   1.02218230e+01  1.44e-07  1.80e-04  1.43e-05  1.00e+00     0s
  57   1.02217944e+01  1.82e-10  2.85e-08  1.43e-05  1.00e+00     1s
  58   1.02218038e+01  4.99e-12  1.02e-10  1.43e-05  1.00e+00     1s
  59   1.02346066e+01  5.47e-08  5.86e-03  4.96e-06  1.04e-01     1s
  60   1.03468980e+01  7.96e-06  7.49e-04  1.16e-06  9.88e-01     1s
  61   1.03485733e+01  3.13e-07  2.33e-03  3.47e-07  1.00e+00     1s
  62   1.03485676e+01  3.31e-08  1.49e-08  1.65e-07  1.00e+00     1s
  63   1.03485676e+01  1.34e-10  1.40e-10  1.65e-07  1.00e+00     1s
  64   1.03501459e+01  4.46e-08  5.57e-04  1.42e-08  1.00e+00     1s
  65   1.03501512e+01  6.96e-10  2.51e-10  1.00e-09  1.00e+00     1s

NL barrier solved model in 65 iterations and 0.58 seconds (0.78 work units)
First-order optimal solution
Solution objective 1.035015124085e+01

User-callback calls 181, time in user-callback 0.00 sec
  Sub: Z₀=10.350151 [LOCAL], α=[0.000,0.000,0.000,0.000,0.000,0.000,0.000,0.000,0.000,0.000,0.000,0.000,0.000,0.000,0.000,0.000,0.000,0.000,0.000,0.000,0.000,0.000,0.000,0.000,0.000,0.000,0.000,0.000,0.000,0.000,0.000,0.000,0.000,0.000,0.000,0.000,0.000,0.000,0.000,0.000,0.000,0.000,0.000,0.000,0.000,0.000,0.000,0.000,0.000,0.000,1.108,0.872,0.000,0.000,0.000,0.000,0.000,0.000,0.000,0.000,0.000,0.000,0.000,0.000,0.000,0.000,0.000,0.000,0.000,0.000,0.000,0.000,0.000,0.000,0.000,0.000]
  Iter 2: LB=10.350159  UB=Inf  gap=NaN
  Cut: intercept=-589.516409, π_x_range=[-418.4684, 301.7925]
  [ρ-diag] φ̂U=1.00, φ̃U=2.00, λU=2.00
    π_L range=[-136.6457, 91.7925], |π_L|_∞=136.6457
    π_F range=[-268.5526, 194.8994], |π_F|_∞=268.5526
    π_ψ range=[-13.3333, 17.1747], |π_ψ|_∞=17.1747
    ρ̂1: [0.0000, 9.6621], ρ̂3: [0.0000, 5.0000]
    ρ̃1: [0.0000, 6.7972], ρ̃3: [0.0000, 4.9686]
    ρ⁰1: [0.0000, 6.6667], ρ⁰3: [0.0000, 8.5874]
  [φ-diag] φ̂ actual: [-0.0000, 1.0000], φ̂U=1.00
  [φ-diag] φ̃ actual: [-0.0000, 0.0000], φ̃U=2.00
  Mini-Benders[1] (mw): LB=10.350159, Z₀(α*)=10.350161, intercept=24.450994
  Mini-Benders[2] (mw): LB=10.350159, Z₀(α*)=10.350161, intercept=24.450994
  Mini-Benders[3]: LB stagnated, break
Gurobi Optimizer version 13.0.0 build v13.0.0rc1 (win64 - Windows 10.0 (19045.2))

CPU model: AMD Ryzen 9 5900X 12-Core Processor, instruction set [SSE2|AVX|AVX2]
Thread count: 12 physical cores, 24 logical processors, using up to 24 threads

Non-default parameters:
DualReductions  0
NonConvex  2

Optimize a model with 8778 rows, 17605 columns and 42593 nonzeros (Max)
Model fingerprint: 0xba1ddfb4
Model has 3136 linear objective coefficients
Model has 3040 quadratic constraints
Coefficient statistics:
  Matrix range     [3e-01, 3e+01]
  QMatrix range    [1e+00, 1e+00]
  QLMatrix range   [1e+00, 1e+00]
  Objective range  [1e+00, 2e+00]
  Bounds range     [5e-02, 2e+00]
  RHS range        [5e-02, 2e+00]
Presolve removed 102 rows and 2168 columns
Presolve time: 0.00s
Presolved: 9588 rows, 15437 columns, 36369 nonzeros
Ordering time: 0.00s

Barrier statistics:
 Free vars  : 440
 AA' NZ     : 3.249e+04
 Factor NZ  : 2.371e+05 (roughly 12 MB of memory)
 Factor Ops : 1.447e+07 (less than 1 second per iteration)
 Threads    : 12

                  Objective                Residual
Iter       Primal          Dual         Primal    Dual     Compl     Time
   0  -1.08228033e+05 -0.00000000e+00  1.20e+04 1.00e+00  1.38e+02     0s
   1  -1.26826967e+05  1.04939036e+03  3.53e+03 5.98e+00  8.47e+01     0s
   2  -1.17055384e+05  1.29563557e+03  8.45e+02 1.42e+00  2.26e+01     0s
   3  -5.53335459e+04  9.17334056e+02  2.42e+01 3.01e-01  4.99e+00     0s
   4  -9.86222855e+03  6.27851528e+02  2.02e+00 8.50e-02  9.79e-01     0s
   5  -2.75692728e+03  3.07514161e+02  5.21e-01 1.44e-02  2.12e-01     0s
   6  -6.03481823e+02  1.37917734e+02  1.16e-01 2.39e-03  4.57e-02     0s
   7  -1.91835133e+02  8.02659268e+01  3.57e-02 1.20e-03  1.91e-02     0s
   8  -4.38071515e+01  1.88189002e+01  7.82e-03 3.26e-05  3.00e-03     0s
   9  -1.72836212e+00  1.25679999e+01  1.59e-03 7.07e-06  6.91e-04     0s
  10   1.00485936e+01  1.04059193e+01  2.70e-05 7.69e-08  1.63e-05     0s
  11   1.03495439e+01  1.03502450e+01  1.85e-07 1.28e-09  2.97e-08     0s
  12   1.03501602e+01  1.03501609e+01  9.84e-10 3.68e-12  3.34e-11     0s
  13   1.03501609e+01  1.03501609e+01  2.45e-12 1.07e-14  8.08e-14     0s

Barrier solved model in 13 iterations and 0.06 seconds (0.08 work units)
Optimal objective 1.03501609e+01


User-callback calls 55, time in user-callback 0.00 sec
  α-step: Z₀=10.350161, α=[0.000,0.000,0.000,0.000,0.000,0.000,0.000,0.000,0.000,0.000,0.000,0.000,0.000,0.000,0.000,0.000,0.000,0.000,0.000,0.000,0.000,0.000,0.000,0.000,0.000,0.000,0.000,0.000,0.000,0.000,0.000,0.000,0.000,0.000,0.000,0.000,0.000,0.000,0.000,0.000,0.000,0.000,0.000,0.000,0.000,0.000,0.000,0.000,0.000,0.000,1.189,0.792,0.000,0.000,0.000,0.000,0.000,0.000,0.000,0.000,0.000,0.000,0.000,0.000,0.000,0.000,0.000,0.000,0.000,0.000,0.000,0.000,0.000,0.000,0.000,0.000]
  Alt-Benders[1] (mw): LB=10.350159, Z₀(α*)=10.350161, intercept=24.450995
  Alt-Benders[2] (mw): LB=10.350159, Z₀(α*)=10.350161, intercept=24.450995
  Alt-Benders[3]: LB stagnated, break
  OMP re-solve: 0.001s

=== True-DRO Benders iter 3 ===
  OMP: t₀=10.350159, UB=Inf, gap=NaN, x=[0, 0, 0, 0, 0, 0, 0, 0, 0, 0, 0, 0, 0, 0, 0, 0, 0, 0, 0, 0, 0, 0, 0, 0, 0, 0, 0, 0, 0, 0, 0, 0, 0, 0, 0, 0, 0, 0, 0, 0, 0, 0, 0, 0, 0, 0, 0, 0, 0, 0, 1, 1, 0, 0, 0, 0, 0, 0, 0, 0, 0, 0, 0, 0, 0, 0, 0, 0, 0, 0, 0, 0, 0, 0, 0, 0] (0.001s)
Set parameter TimeLimit to value 30
Set parameter MIPGap to value 0.0001
Set parameter MIPFocus to value 0
Gurobi Optimizer version 13.0.0 build v13.0.0rc1 (win64 - Windows 10.0 (19045.2))

CPU model: AMD Ryzen 9 5900X 12-Core Processor, instruction set [SSE2|AVX|AVX2]
Thread count: 12 physical cores, 24 logical processors, using up to 24 threads

Non-default parameters:
TimeLimit  30
DualReductions  0
NonConvex  2

Optimize a model with 8778 rows, 17605 columns and 42593 nonzeros (Max)
Model fingerprint: 0x47345021
Model has 3136 linear objective coefficients
Model has 3040 quadratic constraints
Coefficient statistics:
  Matrix range     [3e-01, 3e+01]
  QMatrix range    [1e+00, 1e+00]
  QLMatrix range   [1e+00, 1e+00]
  Objective range  [1e+00, 2e+00]
  Bounds range     [1e+00, 2e+00]
  RHS range        [5e-02, 2e+00]

Continuous model is non-convex -- solving as a MIP

Presolve time: 0.01s
Presolved: 20938 rows, 17606 columns, 66913 nonzeros
Presolved model has 3040 bilinear constraint(s)
Variable types: 17606 continuous, 0 integer (0 binary)
Found heuristic solution: objective 10.3501526

Root relaxation: objective 1.236221e+01, 6993 iterations, 0.31 seconds (0.75 work units)

    Nodes    |    Current Node    |     Objective Bounds      |     Work
 Expl Unexpl |  Obj  Depth IntInf | Incumbent    BestBd   Gap | It/Node Time

     0     0   12.36221    0   60   10.35015   12.36221  19.4%     -    0s
     0     0          -    0        10.35015   10.35016  0.00%     -    0s

Cutting planes:
  RLT: 33

Explored 1 nodes (7216 simplex iterations) in 0.95 seconds (1.49 work units)
Thread count was 24 (of 24 available processors)

Solution count 1: 10.3502 

Optimal solution found (tolerance 1.00e-04)
Best objective 1.035015262778e+01, best bound 1.035016092569e+01, gap 0.0001%

User-callback calls 78, time in user-callback 0.00 sec
  Sub: Z₀=10.350153, α=[0.000,0.000,0.000,0.000,0.000,0.000,0.000,0.000,0.000,0.000,0.000,0.000,0.000,0.000,0.000,0.000,0.000,0.000,0.000,0.000,0.000,0.000,0.000,0.000,0.000,0.000,0.000,0.000,0.000,0.000,0.000,0.000,0.000,0.000,0.000,0.000,0.000,0.000,0.000,0.000,0.000,0.000,0.000,0.000,0.000,0.000,0.000,0.000,0.000,0.000,0.961,1.020,0.000,0.000,0.000,0.000,0.000,0.000,0.000,0.000,0.000,0.000,0.000,0.000,0.000,0.000,0.000,0.000,0.000,0.000,0.000,0.000,0.000,0.000,0.000,0.000]
  Iter 3: LB=10.350159  UB=10.350153  gap=6.06e-07
True-DRO Benders converged at iter 3 (gap=6.06e-07)
  Wall time: 9.70 sec
  OMP  time: mean=0.176s, median=0.226s, max=0.306s
  Sub  time (exact): mean=0.966s, median=0.966s, q90=0.966s, max=0.966s (n=1/3)

----------------------------------------
True-DRO: status=Optimal, Z₀=10.350153, iters=3, time=9.70s
  LB=10.350159, UB=10.350153, gap=6.06e-07
  x* = [0, 0, 0, 0, 0, 0, 0, 0, 0, 0, 0, 0, 0, 0, 0, 0, 0, 0, 0, 0, 0, 0, 0, 0, 0, 0, 0, 0, 0, 0, 0, 0, 0, 0, 0, 0, 0, 0, 0, 0, 0, 0, 0, 0, 0, 0, 0, 0, 0, 0, 1, 1, 0, 0, 0, 0, 0, 0, 0, 0, 0, 0, 0, 0, 0, 0, 0, 0, 0, 0, 0, 0, 0, 0, 0, 0]
  α* = [0.000, 0.000, 0.000, 0.000, 0.000, 0.000, 0.000, 0.000, 0.000, 0.000, 0.000, 0.000, 0.000, 0.000, 0.000, 0.000, 0.000, 0.000, 0.000, 0.000, 0.000, 0.000, 0.000, 0.000, 0.000, 0.000, 0.000, 0.000, 0.000, 0.000, 0.000, 0.000, 0.000, 0.000, 0.000, 0.000, 0.000, 0.000, 0.000, 0.000, 0.000, 0.000, 0.000, 0.000, 0.000, 0.000, 0.000, 0.000, 0.000, 0.000, 0.961, 1.020, 0.000, 0.000, 0.000, 0.000, 0.000, 0.000, 0.000, 0.000, 0.000, 0.000, 0.000, 0.000, 0.000, 0.000, 0.000, 0.000, 0.000, 0.000, 0.000, 0.000, 0.000, 0.000, 0.000, 0.000]
  Profile saved → C:\Users\user\robust_bilevel_network_games\true_dro\profiles.jls (24 entries)
============================================================
Primal Recovery: x* → α* → (h*, λ*, ψ⁰*)
============================================================
  x* = [0, 0, 0, 0, 0, 0, 0, 0, 0, 0, 0, 0, 0, 0, 0, 0, 0, 0, 0, 0, 0, 0, 0, 0, 0, 0, 0, 0, 0, 0, 0, 0, 0, 0, 0, 0, 0, 0, 0, 0, 0, 0, 0, 0, 0, 0, 0, 0, 0, 0, 1, 1, 0, 0, 0, 0, 0, 0, 0, 0, 0, 0, 0, 0, 0, 0, 0, 0, 0, 0, 0, 0, 0, 0, 0, 0]
  α* = [0.0000, 0.0000, 0.0000, 0.0000, 0.0000, 0.0000, 0.0000, 0.0000, 0.0000, 0.0000, 0.0000, 0.0000, 0.0000, 0.0000, 0.0000, 0.0000, 0.0000, 0.0000, 0.0000, 0.0000, 0.0000, 0.0000, 0.0000, 0.0000, 0.0000, 0.0000, 0.0000, 0.0000, 0.0000, 0.0000, 0.0000, 0.0000, 0.0000, 0.0000, 0.0000, 0.0000, 0.0000, 0.0000, 0.0000, 0.0000, 0.0000, 0.0000, 0.0000, 0.0000, 0.0000, 0.0000, 0.0000, 0.0000, 0.0000, 0.0000, 0.9609, 1.0196, 0.0000, 0.0000, 0.0000, 0.0000, 0.0000, 0.0000, 0.0000, 0.0000, 0.0000, 0.0000, 0.0000, 0.0000, 0.0000, 0.0000, 0.0000, 0.0000, 0.0000, 0.0000, 0.0000, 0.0000, 0.0000, 0.0000, 0.0000, 0.0000]

  Piece-F obj = 0.000000
  λ*   = -0.000000
  Σh*  = 0.000000  (budget: λw = -0.000000)

  h* (nonzero arcs):
  ψ⁰* (nonzero arcs):

  Per-scenario sink flow ỹ_ts:
    s=1: ỹ_ts=-0.000000
    s=2: ỹ_ts=-0.000000
    s=3: ỹ_ts=-0.000000
    s=4: ỹ_ts=-0.000000
    s=5: ỹ_ts=-0.000000
    s=6: ỹ_ts=-0.000000
    s=7: ỹ_ts=-0.000000
    s=8: ỹ_ts=-0.000000
    s=9: ỹ_ts=-0.000000
    s=10: ỹ_ts=-0.000000
    s=11: ỹ_ts=-0.000000
    s=12: ỹ_ts=-0.000000
    s=13: ỹ_ts=-0.000000
    s=14: ỹ_ts=-0.000000
    s=15: ỹ_ts=-0.000000
    s=16: ỹ_ts=-0.000000
    s=17: ỹ_ts=-0.000000
    s=18: ỹ_ts=-0.000000
    s=19: ỹ_ts=-0.000000
    s=20: ỹ_ts=-0.000000

  Z₀(Benders) = 10.350153
  Piece-F(recovered) = 0.000000

Finished: 2026-04-17T13:56:44.152
